letting n_nurses=25
letting n_days=7
letting n_shift_types=4
letting max_covers=10
letting t_covers=61
letting covers=[1,0,0,0,6,8,0,0,0,0,0,0,9,0,10,0,8,6,0,0,5,8,0,0,0,0,0,0]
letting prefes=[1,1,1,1,3,2,2,3,1,1,1,3,1,1,1,1,3,2,2,3,1,1,1,3,1,1,1,1,3,1,3,1,1,2,2,1,1,1,1,1,3,1,3,1,1,2,2,1,1,1,1,1,3,1,3,1,1,1,1,1,1,2,2,1,1,1,1,1,1,1,1,1,1,2,2,1,1,1,1,1,1,1,1,1,3,4,3,4,1,2,2,1,4,1,3,1,3,4,3,4,1,2,2,1,4,1,3,1,3,4,3,4,3,1,3,1,3,2,2,3,1,1,1,1,3,1,3,1,3,2,2,3,1,1,1,1,3,1,3,1,3,1,3,1,1,2,2,1,4,1,1,1,3,1,3,1,1,2,2,1,4,1,1,1,3,1,3,1,1,1,1,1,1,1,1,1,1,1,1,1,1,1,1,1,1,1,1,1,1,1,1,1,1,1,1,1,3,1,3,1,1,2,2,1,1,1,1,1,3,1,3,1,1,2,2,1,1,1,1,1,3,1,3,1,3,1,3,1,1,2,2,1,1,1,1,1,3,1,3,1,1,2,2,1,1,1,1,1,3,1,3,1,3,1,3,1,1,2,2,1,1,2,3,1,3,1,3,1,1,2,2,1,1,2,3,1,3,1,3,1,3,4,3,4,1,2,2,1,1,2,1,3,3,4,3,4,1,2,2,1,1,2,1,3,3,4,3,4,3,1,3,1,1,2,2,1,1,1,1,1,3,1,3,1,1,2,2,1,1,1,1,1,3,1,3,1,3,1,3,1,3,2,2,3,1,1,1,1,3,1,3,1,3,2,2,3,1,1,1,1,3,1,3,1,3,4,3,4,3,1,1,3,4,1,1,1,3,4,3,4,3,1,1,3,4,1,1,1,3,4,3,4,3,1,3,1,1,2,2,1,4,1,3,3,3,1,3,1,1,2,2,1,4,1,3,3,3,1,3,1,1,1,1,1,1,1,1,1,1,2,1,1,1,1,1,1,1,1,1,1,1,2,1,1,1,1,1,1,3,4,3,4,1,2,2,1,1,1,1,1,3,4,3,4,1,2,2,1,1,1,1,1,3,4,3,4,1,1,1,1,3,2,2,3,1,2,1,3,1,1,1,1,3,2,2,3,1,2,1,3,1,1,1,1,3,1,3,1,1,2,2,1,1,1,1,1,3,1,3,1,1,2,2,1,1,1,1,1,3,1,3,1,3,1,3,1,1,2,2,1,1,1,1,1,3,1,3,1,1,2,2,1,1,1,1,1,3,1,3,1,3,1,3,1,1,1,1,1,4,1,1,1,3,1,3,1,1,1,1,1,4,1,1,1,3,1,3,1,3,1,3,1,1,2,2,1,1,1,1,1,3,1,3,1,1,2,2,1,1,1,1,1,3,1,3,1,3,1,3,1,1,1,1,1,1,1,3,1,3,1,3,1,1,1,1,1,1,1,3,1,3,1,3,1,3,1,3,1,1,2,2,1,1,1,1,3,3,1,3,1,1,2,2,1,1,1,1,3,3,1,3,1,3,4,3,4,1,2,2,1,1,2,3,1,3,4,3,4,1,2,2,1,1,2,3,1,3,4,3,4]
letting ub =  235
